p cnf 120 511
-71 -7 -73 0
54 -113 2 0
68 -8 118 0
63 69 -103 0
-61 -57 73 0
-69 16 25 0
-97 57 -81 0
120 -24 -34 0
-54 -15 62 0
-67 45 73 0
77 107 72 0
-95 98 -31 0
-54 107 75 0
107 -58 -17 0
-69 47 -63 0
79 117 24 0
-67 -12 -91 0
-22 -75 -25 0
-35 -91 41 0
110 37 61 0
-67 -99 -88 0
-64 14 60 0
14 19 -50 0
67 -14 19 0
56 -77 96 0
-59 -69 -50 0
3 -32 -74 0
105 -27 -65 0
85 80 15 0
31 -109 -77 0
-84 -81 -108 0
-63 -119 9 0
4 -18 80 0
72 46 66 0
87 120 -41 0
-63 103 -62 0
113 39 -120 0
-59 32 -55 0
-59 9 -93 0
-96 26 -53 0
-46 68 -98 0
97 91 114 0
119 -15 -71 0
28 -96 41 0
-55 76 -98 0
95 -48 -42 0
-117 101 -113 0
16 103 27 0
-7 5 34 0
96 80 29 0
86 102 -19 0
66 69 99 0
23 -44 4 0
13 5 -17 0
-112 113 -116 0
-16 -103 33 0
-120 85 -69 0
53 15 106 0
-79 -75 27 0
57 -61 -108 0
-98 27 -72 0
-3 -97 -96 0
-48 -28 44 0
-28 -107 35 0
95 10 54 0
114 -101 100 0
76 113 -3 0
102 71 15 0
-49 -81 -88 0
46 -53 -50 0
57 37 3 0
-42 98 88 0
-16 -68 -19 0
-25 45 -7 0
-23 -55 -50 0
61 68 98 0
-62 -17 22 0
-4 75 106 0
-103 54 13 0
104 25 73 0
109 -99 15 0
-52 18 -87 0
111 117 -41 0
46 37 84 0
105 31 -25 0
21 74 1 0
-32 -87 -38 0
51 -94 70 0
-45 25 115 0
-67 33 18 0
-93 -77 -13 0
90 28 61 0
84 -19 -110 0
45 22 -18 0
-22 -80 57 0
-16 10 -120 0
41 99 -46 0
69 -32 -48 0
45 36 -39 0
-34 91 10 0
92 64 106 0
90 72 -60 0
119 -14 57 0
1 -14 -81 0
-37 -89 105 0
-67 62 -98 0
-91 -109 -119 0
16 31 59 0
-105 58 -51 0
-106 35 78 0
22 117 77 0
35 75 -71 0
5 10 -116 0
-64 51 -30 0
-103 84 114 0
-62 -120 25 0
117 21 42 0
-71 -108 -86 0
-27 6 -32 0
98 -94 113 0
-40 -72 -96 0
113 108 -6 0
11 14 38 0
-3 88 36 0
23 33 -98 0
42 -21 -37 0
15 1 105 0
94 -52 35 0
4 77 -109 0
-60 111 42 0
92 44 -96 0
-20 -30 8 0
-16 -61 -25 0
31 -90 -84 0
-74 97 -101 0
-93 -55 -110 0
-76 33 -88 0
-113 12 53 0
60 80 -70 0
28 23 60 0
-15 -41 47 0
-29 79 -13 0
40 107 61 0
96 -112 -24 0
-66 38 -64 0
74 -33 -29 0
-14 -22 -95 0
-54 92 -48 0
-60 -28 62 0
13 16 -28 0
27 -21 -22 0
-41 -120 91 0
59 47 -89 0
-39 42 -32 0
81 17 -80 0
7 -96 47 0
101 -108 37 0
78 77 44 0
28 78 -37 0
-64 73 -50 0
98 -87 -74 0
-80 -42 6 0
-100 -74 50 0
-5 48 54 0
47 107 -19 0
-112 84 95 0
-37 101 -60 0
109 19 -114 0
37 -38 99 0
54 35 -34 0
-65 104 -52 0
93 95 86 0
-70 -85 -76 0
68 -115 -25 0
-5 113 46 0
63 -118 -3 0
7 -3 -46 0
-5 28 31 0
99 -103 -28 0
74 -7 60 0
4 -72 26 0
-86 -88 -2 0
-51 62 -24 0
75 -35 -67 0
-91 -1 -31 0
-20 13 55 0
8 16 85 0
-111 33 -66 0
-83 -38 35 0
-57 6 -44 0
-71 42 4 0
-30 68 102 0
-80 -32 116 0
70 -43 -53 0
-51 36 -12 0
113 -74 105 0
-56 64 -49 0
-68 -27 57 0
60 -51 -5 0
-69 -109 -31 0
-90 26 19 0
-88 31 58 0
13 68 36 0
-40 50 22 0
112 -38 13 0
-102 58 -11 0
44 -90 98 0
20 6 -30 0
56 -75 -96 0
79 106 -36 0
-64 105 99 0
-10 -84 -72 0
26 -50 -73 0
-15 -112 -71 0
-12 71 47 0
-39 -31 25 0
-63 83 50 0
20 -39 -45 0
23 116 117 0
-15 -89 -53 0
-118 88 8 0
85 -65 -27 0
104 -44 -13 0
41 -56 -57 0
7 -51 -88 0
-82 27 10 0
44 -52 12 0
-79 97 -27 0
79 -2 -114 0
-88 90 -19 0
36 -53 -25 0
-68 64 -80 0
109 42 38 0
13 37 107 0
-23 51 -94 0
95 -58 19 0
-54 -40 -94 0
84 -81 70 0
60 47 -7 0
52 5 51 0
-34 120 -119 0
-59 -99 -61 0
-113 -17 73 0
-95 79 -98 0
-80 -65 -14 0
-116 -19 113 0
56 98 53 0
-38 -52 -51 0
-41 26 7 0
17 70 -30 0
-118 56 -79 0
88 112 91 0
-31 -17 92 0
-77 -69 -37 0
-92 -7 -49 0
10 -105 -99 0
-34 -24 42 0
-99 -91 -79 0
-58 -114 86 0
82 98 33 0
95 -67 10 0
37 -1 115 0
-80 -97 -3 0
-49 -2 44 0
56 -1 -43 0
81 65 -64 0
110 -50 -10 0
-23 -49 118 0
3 -107 -35 0
119 -49 -12 0
25 56 -24 0
-44 -59 -107 0
48 -114 8 0
-9 -40 54 0
-119 118 28 0
-115 -84 -51 0
-105 9 78 0
111 -22 37 0
111 96 -93 0
92 -71 -30 0
113 -118 -2 0
-61 11 -49 0
115 31 -59 0
-68 -100 -19 0
3 -82 -2 0
92 15 -48 0
-109 -104 -11 0
31 81 28 0
97 -14 -4 0
13 31 14 0
118 90 27 0
47 51 74 0
-29 114 -77 0
95 113 -50 0
-23 79 40 0
46 4 -7 0
51 15 112 0
-21 -66 101 0
-21 60 -23 0
89 -119 -85 0
37 87 -5 0
4 -6 -113 0
5 105 37 0
-28 -52 -82 0
39 30 -60 0
73 66 -82 0
-91 -45 -3 0
-72 17 -54 0
-100 65 -114 0
-46 81 -85 0
-67 -9 -89 0
-12 44 11 0
-21 7 -14 0
44 -51 64 0
-48 -88 96 0
-38 67 -75 0
105 59 -19 0
-89 74 -98 0
-67 100 -95 0
-40 -63 -21 0
-97 -57 17 0
21 96 -111 0
-112 -54 -60 0
-30 20 46 0
111 -27 -115 0
8 -96 -33 0
-34 -35 -99 0
-87 116 18 0
-39 -26 -97 0
106 15 83 0
13 -6 -36 0
1 34 -78 0
13 -46 51 0
-102 -6 57 0
92 -58 -19 0
50 71 -81 0
12 67 -99 0
38 -99 -19 0
-32 -120 17 0
111 -37 14 0
37 -113 -5 0
89 75 102 0
-89 41 94 0
-51 8 -52 0
84 110 -104 0
-68 33 -69 0
-10 29 114 0
44 -110 83 0
-91 6 -94 0
74 -110 -72 0
4 115 25 0
109 -27 24 0
-80 -77 87 0
-8 -97 115 0
-55 -48 83 0
57 -120 55 0
113 112 18 0
53 -57 -36 0
-39 99 31 0
57 -85 -12 0
-89 58 -51 0
72 69 6 0
-12 -119 -74 0
-86 -35 100 0
86 107 3 0
-79 -8 -5 0
-89 -12 115 0
-17 39 42 0
-24 -11 86 0
19 -105 -44 0
64 -35 -37 0
-98 24 -23 0
-69 54 109 0
-95 -94 20 0
-7 -101 -113 0
-47 -101 -16 0
85 30 25 0
48 -20 -27 0
16 -70 100 0
111 -23 -113 0
82 48 105 0
59 -55 -68 0
120 -104 100 0
-86 -55 111 0
28 -67 -49 0
-114 49 29 0
-19 9 64 0
43 -105 -27 0
9 95 111 0
68 116 83 0
47 -110 117 0
75 -60 108 0
-41 -72 111 0
-39 -17 4 0
-114 52 -119 0
1 -86 -46 0
52 6 -9 0
-69 45 -38 0
66 -55 -16 0
68 99 15 0
-85 13 -28 0
38 108 49 0
3 119 9 0
7 78 -94 0
-19 -44 -96 0
-115 -8 74 0
64 -58 -86 0
1 -19 -84 0
-24 -71 -118 0
100 -17 105 0
-65 64 97 0
46 114 -59 0
31 -113 -42 0
53 113 -87 0
64 91 -12 0
-43 66 11 0
60 -63 96 0
-61 63 107 0
18 -51 33 0
-84 91 -43 0
-15 52 -82 0
118 -12 72 0
85 -53 91 0
90 8 -21 0
91 -14 28 0
-48 34 58 0
113 71 95 0
80 67 -90 0
-20 -44 -107 0
101 -41 -79 0
-53 92 -36 0
-65 58 42 0
41 -120 108 0
-109 28 8 0
-96 98 -41 0
85 118 37 0
-58 -113 8 0
25 -59 51 0
-24 46 -13 0
-13 38 -45 0
72 -77 -25 0
-42 -89 -21 0
-88 -42 -4 0
96 82 7 0
52 -42 48 0
-71 95 -97 0
92 20 86 0
-104 -80 -30 0
-96 63 -112 0
-32 -10 -112 0
-49 -88 -118 0
-75 -60 65 0
-38 35 -55 0
102 24 29 0
-58 -29 -103 0
94 -104 -82 0
29 7 -68 0
100 111 -52 0
-101 109 4 0
-100 -42 -52 0
-83 19 115 0
-12 54 -88 0
-22 120 -51 0
-70 -22 -51 0
-5 -42 34 0
46 -98 -13 0
49 -46 -79 0
-2 -5 108 0
-66 67 -16 0
16 -109 -63 0
-70 98 -38 0
-102 -11 -98 0
67 52 38 0
27 -72 76 0
-62 -110 -85 0
60 108 22 0
47 -111 57 0
-107 -4 -56 0
64 91 63 0
87 12 -103 0
96 101 -97 0
-105 22 -81 0
108 -105 -118 0
-41 -50 -7 0
43 -56 82 0
85 -88 108 0
-81 22 11 0
-29 70 -2 0
-73 -80 -104 0
-72 54 -73 0
20 43 -117 0
-37 -76 -87 0
16 92 46 0
-55 97 39 0
-48 -66 71 0
61 9 -54 0
103 7 30 0
-79 65 -25 0
-83 -49 68 0
-71 25 -40 0
-62 -31 -59 0
94 -78 67 0
-16 -52 116 0
40 -112 -85 0
-53 60 22 0
-1 51 74 0
12 -26 -53 0
-106 -23 -70 0
-18 99 57 0
-114 21 -95 0
47 11 -6 0
