p cnf 160 681
-33 18 57 0
115 29 -113 0
-157 -48 -68 0
10 78 -93 0
130 2 34 0
-58 -157 -26 0
5 -118 -125 0
150 55 96 0
-72 -54 46 0
-86 64 100 0
43 -95 27 0
9 134 55 0
-14 72 25 0
-123 -63 -11 0
113 -72 -12 0
159 69 -8 0
20 97 -90 0
16 -30 -70 0
80 103 -2 0
-36 95 61 0
114 -107 103 0
-52 -60 -70 0
-29 -158 -102 0
-40 52 95 0
-27 -22 16 0
-26 67 -18 0
-41 15 -108 0
-52 47 -123 0
153 103 -88 0
-76 -86 -17 0
154 -131 25 0
-128 -89 -61 0
-61 -5 -114 0
-122 -95 127 0
118 38 -23 0
-142 17 35 0
56 21 141 0
-49 4 153 0
6 91 -90 0
25 -78 -17 0
142 -99 153 0
30 -12 -79 0
-130 25 -36 0
-124 52 -114 0
-87 -156 2 0
92 122 98 0
-36 17 -143 0
-141 -46 153 0
-61 -15 34 0
145 -101 141 0
-66 135 -140 0
-66 -54 94 0
-140 -86 -134 0
21 -122 -80 0
-25 80 -58 0
154 135 33 0
25 -52 121 0
-116 -66 -156 0
74 61 -75 0
-17 -44 135 0
-5 67 -87 0
130 117 -97 0
28 -90 -32 0
91 121 114 0
74 136 -52 0
-138 -48 113 0
-67 -57 -122 0
72 32 -136 0
37 -143 125 0
-112 56 -58 0
-17 33 42 0
55 -60 135 0
58 -62 124 0
32 90 -5 0
39 -58 -32 0
84 63 -153 0
-25 -80 -20 0
-152 -76 -59 0
-20 40 153 0
-71 -113 19 0
88 -78 -128 0
55 -136 151 0
-97 -135 147 0
11 148 -73 0
-59 -71 -158 0
139 -108 -122 0
9 -126 -147 0
-142 39 -81 0
111 -88 129 0
82 129 -15 0
-151 -117 82 0
-132 24 -99 0
137 -74 47 0
90 133 125 0
67 -75 66 0
-38 -8 -43 0
-124 -11 78 0
38 155 -18 0
63 -55 -21 0
-53 -92 -103 0
72 146 -69 0
-133 -150 6 0
58 24 49 0
71 123 -54 0
21 -56 89 0
-13 -73 105 0
-44 -33 2 0
132 60 43 0
51 106 -34 0
110 -66 -63 0
-107 65 66 0
-97 -125 136 0
-62 69 24 0
138 -59 46 0
-67 -122 63 0
-100 -98 -13 0
-36 160 51 0
106 -130 156 0
64 -114 52 0
-64 91 99 0
-133 -44 -152 0
-7 -48 -22 0
55 159 23 0
-48 148 19 0
5 -151 -10 0
-146 52 -49 0
-131 -44 10 0
-160 -158 35 0
74 -106 -76 0
151 -125 -61 0
-38 -123 133 0
91 -27 146 0
-117 -113 130 0
-121 -6 2 0
-160 72 144 0
-82 131 71 0
118 -58 129 0
-136 -120 34 0
36 47 21 0
-86 22 129 0
-46 73 103 0
-68 153 -25 0
119 117 36 0
-78 119 48 0
-34 69 54 0
46 86 -134 0
-66 -60 33 0
-109 -85 15 0
-27 143 159 0
-155 9 -117 0
-79 -56 131 0
-15 -9 79 0
37 6 145 0
-24 -107 -125 0
-83 -10 68 0
-137 -133 140 0
137 87 2 0
-83 -4 -114 0
126 151 141 0
-45 3 15 0
-7 28 125 0
73 -82 -32 0
-28 151 -82 0
-49 -41 -137 0
-64 119 -148 0
-73 37 12 0
-101 67 -27 0
-18 -101 -24 0
-56 86 80 0
-24 86 97 0
-95 -105 -111 0
-12 137 132 0
78 -67 -121 0
93 30 34 0
-88 141 76 0
3 137 110 0
-60 -62 52 0
-60 147 -118 0
-68 50 129 0
9 -116 115 0
114 -62 146 0
-145 -113 12 0
82 159 -15 0
115 -86 -36 0
-153 61 -149 0
115 96 -126 0
48 -111 -70 0
-156 -57 70 0
-52 84 39 0
56 -154 71 0
101 59 -109 0
28 62 -60 0
59 61 81 0
35 -99 150 0
-153 140 -101 0
-123 -125 -79 0
-118 -3 139 0
-3 -114 -99 0
42 -119 78 0
-15 -10 -46 0
-89 30 151 0
-88 -100 29 0
67 -51 -119 0
-77 -6 -126 0
117 9 -35 0
-128 -82 -148 0
121 -127 -111 0
-93 133 -62 0
-17 -103 -150 0
-131 -112 79 0
-155 22 -80 0
88 152 12 0
-26 -94 -149 0
-107 3 -138 0
142 -131 -14 0
146 126 132 0
107 -79 -154 0
-49 -137 108 0
-135 20 129 0
-64 118 -152 0
-131 -96 125 0
-134 -7 -14 0
15 -128 57 0
132 158 -127 0
55 45 -93 0
108 123 151 0
-45 33 -145 0
100 101 -72 0
20 100 -128 0
57 -149 -13 0
101 -5 53 0
115 139 83 0
-78 63 96 0
160 32 7 0
39 -50 141 0
-6 -91 71 0
-26 91 -136 0
79 120 -67 0
47 -17 -19 0
81 -15 -33 0
-91 -40 -20 0
-122 98 88 0
-5 -137 -39 0
19 -32 -4 0
20 -76 -28 0
-105 47 74 0
-74 -144 69 0
5 -68 7 0
21 -114 17 0
-81 68 21 0
135 -48 122 0
102 -123 6 0
-151 159 -82 0
140 -94 124 0
-61 139 53 0
63 -43 -133 0
-18 -114 142 0
-41 1 138 0
68 -9 89 0
72 98 5 0
31 -103 -42 0
-89 74 21 0
73 -43 45 0
144 50 -68 0
133 151 87 0
105 70 137 0
-41 -81 106 0
157 -82 -78 0
48 7 -34 0
-3 124 -108 0
-91 39 -42 0
74 -132 100 0
131 -129 -60 0
-74 -92 -34 0
-70 -35 66 0
-41 -12 159 0
36 -95 -60 0
66 119 29 0
-2 -78 99 0
-131 1 -38 0
-55 -85 87 0
-33 90 -38 0
67 -130 -73 0
-55 127 143 0
30 59 -26 0
139 -156 46 0
79 -10 151 0
-119 -7 -111 0
143 84 -136 0
-7 115 -46 0
-137 88 -56 0
116 -140 74 0
-72 46 -130 0
62 -140 -135 0
-72 91 -130 0
-49 -57 6 0
-131 -113 73 0
-131 -54 -45 0
-15 -27 147 0
28 -92 -133 0
91 -123 -33 0
-36 159 147 0
96 129 -26 0
115 148 -131 0
132 -97 142 0
124 -107 52 0
-63 85 121 0
155 80 -117 0
-73 -58 -69 0
-43 -122 -146 0
-45 121 -35 0
29 90 59 0
-108 84 -24 0
-6 -152 128 0
-61 -21 51 0
150 133 -149 0
97 -133 -24 0
45 -60 79 0
-145 -36 13 0
-17 74 -102 0
53 -108 74 0
-131 50 137 0
-68 50 32 0
40 -124 -13 0
-113 -132 82 0
39 139 -114 0
50 -17 -85 0
138 -129 -153 0
24 -68 111 0
26 158 33 0
-40 -110 48 0
-126 -29 101 0
-155 -39 106 0
97 -91 -92 0
104 -35 -134 0
67 87 154 0
-157 36 116 0
-146 99 151 0
15 97 147 0
-73 -72 -57 0
59 -91 101 0
95 20 35 0
-160 -86 -109 0
17 67 -127 0
105 1 -83 0
-31 96 -10 0
123 -135 -27 0
55 -128 -159 0
66 -57 36 0
-53 -44 -64 0
-31 42 32 0
-105 -27 -157 0
-142 -70 156 0
-1 152 98 0
-156 1 79 0
-35 36 -120 0
110 87 140 0
-160 158 102 0
99 55 139 0
-71 -13 85 0
123 80 -135 0
113 110 -4 0
15 -143 40 0
134 -105 -148 0
-7 -8 139 0
-90 -104 99 0
141 130 -126 0
-136 -145 -150 0
-127 -43 -109 0
40 124 -143 0
-24 134 103 0
157 146 -29 0
52 22 -86 0
-87 -156 75 0
86 -32 91 0
-78 30 84 0
-83 -127 1 0
-83 41 29 0
10 54 78 0
10 86 -70 0
-27 -54 94 0
-149 -44 95 0
-16 -15 -42 0
-129 51 -93 0
-23 -141 24 0
-60 -158 126 0
-32 74 -26 0
86 -23 96 0
-133 146 52 0
58 -42 67 0
104 159 -54 0
-133 -85 -86 0
159 -63 115 0
144 131 -19 0
-156 132 123 0
64 130 36 0
-157 159 -111 0
-24 84 -140 0
103 -80 142 0
-10 -114 132 0
5 -14 -92 0
-37 -159 158 0
-134 -85 -93 0
89 60 57 0
-89 -92 -38 0
-77 147 88 0
-4 156 -64 0
111 16 -134 0
-35 17 -14 0
138 -23 -54 0
-49 56 93 0
5 -117 -9 0
-53 -14 104 0
-125 155 -12 0
-81 82 -72 0
-105 138 14 0
64 67 94 0
4 -123 -140 0
-125 -22 -145 0
126 42 129 0
31 -26 14 0
-29 153 79 0
-10 151 158 0
-66 119 -129 0
75 72 87 0
-131 -43 -29 0
-65 -127 86 0
-45 40 2 0
-25 129 -5 0
-86 98 35 0
61 -32 25 0
-49 -68 151 0
13 7 111 0
119 -91 -159 0
-34 -22 120 0
-152 18 -8 0
11 -4 -145 0
-142 36 148 0
101 -59 -107 0
144 68 -54 0
-138 152 -84 0
-62 26 139 0
67 106 -94 0
136 104 79 0
71 -26 13 0
112 -12 95 0
-144 94 -85 0
150 -135 47 0
3 160 -108 0
95 33 -140 0
34 69 52 0
-144 -56 94 0
137 -107 -27 0
28 -67 -20 0
122 -138 108 0
154 153 41 0
-141 -110 6 0
122 105 47 0
-53 86 -16 0
-124 74 22 0
-22 -159 -94 0
-98 -46 -78 0
130 110 83 0
98 -9 -97 0
-64 105 -73 0
-156 -18 46 0
116 -42 -50 0
64 -122 -93 0
149 -144 91 0
42 90 -28 0
-24 -79 -135 0
145 -93 -28 0
-147 52 -130 0
75 -41 -30 0
-97 106 -8 0
-8 140 -111 0
-50 138 63 0
44 -60 -3 0
10 136 -59 0
99 102 93 0
49 39 -55 0
-154 43 28 0
-138 103 141 0
83 53 28 0
-150 -7 -98 0
-64 149 117 0
-38 34 117 0
101 -62 48 0
-86 12 113 0
54 69 -101 0
33 -66 142 0
-52 -71 105 0
25 -94 -127 0
56 64 85 0
-1 -109 -55 0
39 -99 32 0
-51 -29 -66 0
-54 60 -12 0
-80 123 36 0
106 -24 47 0
-91 150 -33 0
32 62 21 0
6 -33 26 0
-159 -14 34 0
-24 11 160 0
-52 28 10 0
-63 123 -43 0
116 118 139 0
-139 -4 127 0
-45 51 92 0
58 -129 5 0
24 83 -2 0
129 -91 -149 0
-11 -66 142 0
34 -18 -41 0
74 44 24 0
-96 -159 153 0
84 -158 -120 0
-110 37 82 0
-122 -131 -56 0
44 -70 -23 0
37 66 -113 0
-84 75 -52 0
43 -3 -9 0
21 42 140 0
-155 -131 -119 0
100 149 65 0
152 126 -51 0
-123 64 67 0
103 108 92 0
160 -21 131 0
-52 -118 86 0
-14 101 -78 0
-113 21 -116 0
38 17 -65 0
-20 -120 43 0
-86 116 17 0
-115 22 77 0
-14 -9 -93 0
45 118 -22 0
-49 95 -122 0
-102 -139 26 0
43 132 125 0
-107 -29 -97 0
-149 18 13 0
-149 1 -78 0
-37 103 -134 0
4 87 125 0
12 35 156 0
158 128 80 0
33 70 122 0
34 -97 75 0
-24 -141 159 0
-138 -97 -121 0
28 11 -113 0
-16 87 -31 0
-71 97 -68 0
21 -103 55 0
-3 -25 -44 0
40 -23 -34 0
-135 -18 153 0
146 139 -29 0
7 -96 160 0
-108 -53 -102 0
-60 128 -45 0
-160 -131 90 0
116 -22 -78 0
-112 84 -135 0
110 3 145 0
97 -94 114 0
-43 152 58 0
4 -48 16 0
138 2 -5 0
19 14 71 0
57 -144 -42 0
-96 34 -125 0
-146 33 124 0
91 160 15 0
-105 143 -121 0
148 -44 30 0
7 115 -63 0
-81 -89 -27 0
136 -130 103 0
-35 -135 124 0
149 66 49 0
147 158 61 0
60 -57 66 0
122 92 -72 0
157 -132 75 0
58 90 -56 0
125 -83 111 0
-19 68 58 0
44 94 -127 0
65 16 -23 0
81 150 44 0
-54 146 -126 0
-68 -30 46 0
-73 -53 -52 0
-107 -96 -117 0
40 10 -58 0
64 -137 -156 0
82 -4 -126 0
-48 64 -26 0
146 -61 108 0
-117 23 -134 0
24 -150 149 0
47 -126 73 0
-59 -68 51 0
-152 -98 -30 0
54 -27 157 0
-82 105 152 0
105 -7 -31 0
-152 -63 -130 0
157 122 -121 0
-13 56 150 0
8 98 63 0
56 150 31 0
-62 101 -118 0
139 -73 -21 0
133 131 -98 0
-69 -7 143 0
85 122 6 0
-52 51 -49 0
60 -63 -22 0
-117 -24 39 0
36 141 -90 0
105 38 55 0
-138 -62 -104 0
108 49 -134 0
99 93 141 0
40 102 23 0
-68 48 76 0
141 -145 -77 0
152 129 -81 0
-65 124 63 0
143 -154 24 0
-133 -22 20 0
19 -154 103 0
-54 135 -4 0
-92 -57 -64 0
-51 -89 160 0
125 12 -105 0
-137 -147 56 0
-120 38 -18 0
34 160 115 0
-133 32 -26 0
148 -32 -51 0
-135 57 -112 0
-152 91 4 0
142 117 -74 0
-123 -59 21 0
-72 -107 -66 0
31 150 -65 0
-95 -97 82 0
-139 -127 -19 0
-105 -126 -158 0
-113 72 -153 0
-130 -57 132 0
-17 -95 -8 0
17 36 8 0
26 -92 -153 0
49 -32 91 0
155 54 151 0
-137 37 -6 0
138 35 130 0
-50 -42 -118 0
94 25 11 0
-127 15 84 0
25 -103 14 0
-100 -5 -119 0
18 70 -124 0
-106 -5 -32 0
-101 -122 126 0
-151 -91 133 0
-53 -159 149 0
48 30 -8 0
-12 75 113 0
-146 43 -9 0
134 -43 -13 0
-106 154 -7 0
114 -128 -98 0
